(declare-const X String)
; Host\x3a[^\n\r]*snprtz\x7Cdialno\s+Agent\s+Host\x3AUser-Agent\x3A\.cfgUser-Agent\x3Axbqyosoe\x2fcpvm
(assert (not (str.in_re X (re.++ (str.to_re "Host:") (re.* (re.union (str.to_re "\u{a}") (str.to_re "\u{d}"))) (str.to_re "snprtz|dialno") (re.+ (re.union (str.to_re " ") (str.to_re "\u{9}") (str.to_re "\u{a}") (str.to_re "\u{c}") (str.to_re "\u{d}"))) (str.to_re "Agent") (re.+ (re.union (str.to_re " ") (str.to_re "\u{9}") (str.to_re "\u{a}") (str.to_re "\u{c}") (str.to_re "\u{d}"))) (str.to_re "Host:User-Agent:.cfgUser-Agent:xbqyosoe/cpvm\u{a}")))))
; Host\x3A\d+zmnjgmomgbdz\x2fzzmw\.gzt%3ftoolbar\x2Ei-lookup\x2Ecom
(assert (str.in_re X (re.++ (str.to_re "Host:") (re.+ (re.range "0" "9")) (str.to_re "zmnjgmomgbdz/zzmw.gzt%3ftoolbar.i-lookup.com\u{a}"))))
; log\=\x7BIP\x3A\d\x2Etxt\s+Pcast\x2Edat\x2EToolbar\x7D\x7BOS\x3Atoolsbar\x2Ekuaiso\x2EcomHost\x3A
(assert (not (str.in_re X (re.++ (str.to_re "log={IP:") (re.range "0" "9") (str.to_re ".txt") (re.+ (re.union (str.to_re " ") (str.to_re "\u{9}") (str.to_re "\u{a}") (str.to_re "\u{c}") (str.to_re "\u{d}"))) (str.to_re "Pcast.dat.Toolbar}{OS:toolsbar.kuaiso.comHost:\u{a}")))))
; /\(\?[gimxs]{1,5}\)/
(assert (str.in_re X (re.++ (str.to_re "/(?") ((_ re.loop 1 5) (re.union (str.to_re "g") (str.to_re "i") (str.to_re "m") (str.to_re "x") (str.to_re "s"))) (str.to_re ")/\u{a}"))))
(check-sat)

(exit)
